# Objective value = 63
S_0 0
S_1 0
S_2 1
S_3 0
S_4 1
S_5 0
S_6 0
S_7 0
S_8 1
S_9 1
S_10 0
S_11 0
S_12 0
y_1_0_2 0
y_2_0_2 0
y_3_0_2 0
y_3_0_4 0
y_3_2_4 0
y_4_0_2 0
y_4_0_4 0
y_4_0_5 0
y_4_2_4 0
y_4_2_5 1
y_4_4_5 1
y_5_0_2 0
y_5_0_4 0
y_5_0_5 0
y_5_2_4 0
y_5_2_5 0
y_5_4_5 0
y_6_0_2 0
y_6_0_4 0
y_6_0_5 0
y_6_2_4 0
y_6_2_5 0
y_6_4_5 0
y_7_0_2 0
y_7_0_4 0
y_7_0_5 0
y_7_2_4 0
y_7_2_5 0
y_7_4_5 0
y_8_0_2 0
y_8_0_4 0
y_8_0_5 0
y_8_2_4 0
y_8_2_5 0
y_8_4_5 0
y_9_0_2 0
y_9_0_4 0
y_9_0_5 0
y_9_2_4 0
y_9_2_5 0
y_9_4_5 1
y_10_0_2 0
y_10_0_4 0
y_10_0_5 0
y_10_2_4 0
y_10_2_5 0
y_10_4_5 0
y_11_0_2 0
y_11_0_4 0
y_11_0_5 0
y_11_2_4 0
y_11_2_5 0
y_11_4_5 0
y_12_0_2 1
y_12_0_4 0
y_12_0_5 0
y_12_2_4 0
y_12_2_5 0
y_12_4_5 0
y_13_0_2 0
y_13_0_4 0
y_13_0_5 0
y_13_2_4 0
y_13_2_5 0
y_13_4_5 0
y_14_0_2 1
y_14_0_4 0
y_14_0_5 0
y_14_2_4 0
y_14_2_5 0
y_14_4_5 0
y_15_0_2 0
y_15_0_4 0
y_15_0_5 0
y_15_0_6 0
y_15_2_4 0
y_15_2_5 0
y_15_2_6 0
y_15_4_5 0
y_15_4_6 0
y_15_5_6 0
y_16_0_2 0
y_16_0_4 0
y_16_0_5 0
y_16_2_4 0
y_16_2_5 0
y_16_4_5 0
y_17_0_2 0
y_17_0_4 0
y_17_0_5 0
y_17_2_4 0
y_17_2_5 0
y_17_4_5 0
y_18_0_2 0
y_18_0_4 0
y_18_0_5 0
y_18_2_4 0
y_18_2_5 0
y_18_4_5 0
y_19_0_2 0
y_19_0_4 0
y_19_2_4 0
y_20_0_2 0
y_20_0_4 0
y_20_2_4 0
y_21_0_2 0
y_21_0_4 0
y_21_2_4 0
y_22_0_2 0
y_22_0_4 0
y_22_2_4 0
y_23_0_2 0
y_23_0_4 0
y_23_2_4 0
y_24_0_2 0
y_24_0_4 0
y_24_2_4 0
y_25_0_2 0
y_25_0_4 0
y_25_0_8 0
y_25_2_4 0
y_25_2_8 0
y_25_4_8 0
y_26_0_2 0
y_26_0_4 0
y_26_0_8 0
y_26_2_4 0
y_26_2_8 0
y_26_4_8 0
y_27_0_2 0
y_27_0_4 0
y_27_0_8 0
y_27_0_9 0
y_27_2_4 1
y_27_2_8 0
y_27_2_9 0
y_27_4_8 1
y_27_4_9 1
y_27_8_9 0
y_28_0_2 0
y_28_0_4 0
y_28_0_8 0
y_28_0_9 0
y_28_2_4 0
y_28_2_8 0
y_28_2_9 0
y_28_4_8 0
y_28_4_9 0
y_28_8_9 1
y_29_0_2 0
y_29_0_4 0
y_29_0_8 0
y_29_0_9 0
y_29_2_4 0
y_29_2_8 0
y_29_2_9 0
y_29_4_8 0
y_29_4_9 0
y_29_8_9 0
y_30_0_2 0
y_30_0_4 0
y_30_0_8 0
y_30_0_9 0
y_30_2_4 0
y_30_2_8 0
y_30_2_9 0
y_30_4_8 0
y_30_4_9 0
y_30_8_9 0
y_31_0_2 0
y_31_0_4 0
y_31_0_8 0
y_31_0_9 0
y_31_2_4 0
y_31_2_8 0
y_31_2_9 0
y_31_4_8 0
y_31_4_9 0
y_31_8_9 0
y_32_0_2 0
y_32_0_4 0
y_32_0_8 0
y_32_0_9 0
y_32_2_4 0
y_32_2_8 0
y_32_2_9 0
y_32_4_8 0
y_32_4_9 0
y_32_8_9 0
y_33_0_2 0
y_33_0_4 0
y_33_0_8 0
y_33_0_9 0
y_33_2_4 0
y_33_2_8 0
y_33_2_9 0
y_33_4_8 0
y_33_4_9 0
y_33_8_9 0
y_34_0_2 0
y_34_0_4 0
y_34_0_8 0
y_34_0_9 0
y_34_2_4 0
y_34_2_8 0
y_34_2_9 0
y_34_4_8 0
y_34_4_9 0
y_34_8_9 0
y_35_0_2 0
y_35_0_4 0
y_35_0_8 0
y_35_0_9 0
y_35_2_4 0
y_35_2_8 0
y_35_2_9 0
y_35_4_8 0
y_35_4_9 0
y_35_8_9 0
y_36_0_2 0
y_36_0_4 0
y_36_0_8 0
y_36_0_9 0
y_36_2_4 0
y_36_2_8 0
y_36_2_9 0
y_36_4_8 0
y_36_4_9 0
y_36_8_9 0
y_37_0_2 0
y_37_0_4 0
y_37_0_8 0
y_37_0_9 0
y_37_0_10 0
y_37_2_4 0
y_37_2_8 0
y_37_2_9 0
y_37_2_10 0
y_37_4_8 0
y_37_4_9 0
y_37_4_10 0
y_37_8_9 0
y_37_8_10 0
y_37_9_10 0
y_38_0_2 1
y_38_0_4 1
y_38_0_8 0
y_38_0_9 0
y_38_0_10 0
y_38_2_4 0
y_38_2_8 0
y_38_2_9 0
y_38_2_10 0
y_38_4_8 0
y_38_4_9 0
y_38_4_10 0
y_38_8_9 1
y_38_8_10 0
y_38_9_10 1
y_39_2_4 0
y_39_2_8 0
y_39_2_9 0
y_39_2_10 0
y_39_4_8 0
y_39_4_9 0
y_39_4_10 0
y_39_8_9 0
y_39_8_10 1
y_39_9_10 0
y_40_2_4 0
y_40_2_9 0
y_40_2_10 0
y_40_4_9 0
y_40_4_10 0
y_40_9_10 0
y_41_2_4 0
y_41_2_10 0
y_41_4_10 0
y_42_2_4 0
y_42_2_10 0
y_42_2_11 0
y_42_4_10 0
y_42_4_11 0
y_42_10_11 0
y_43_2_4 0
y_43_2_10 0
y_43_2_11 0
y_43_4_10 0
y_43_4_11 0
y_43_10_11 0
y_44_2_4 0
y_44_2_10 0
y_44_2_11 0
y_44_4_10 0
y_44_4_11 0
y_44_10_11 0
y_45_2_4 0
y_45_2_10 0
y_45_2_11 0
y_45_4_10 0
y_45_4_11 0
y_45_10_11 0
y_46_2_4 0
y_46_2_10 0
y_46_2_11 0
y_46_4_10 0
y_46_4_11 0
y_46_10_11 0
y_47_2_10 0
y_47_2_11 0
y_47_10_11 0
y_48_2_10 0
y_48_2_11 0
y_48_2_12 0
y_48_10_11 0
y_48_10_12 0
y_48_11_12 0
y_49_2_10 0
y_49_2_11 0
y_49_2_12 0
y_49_10_11 0
y_49_10_12 0
y_49_11_12 0
y_50_2_10 0
y_50_2_11 0
y_50_10_11 0
y_51_2_10 0
y_51_2_11 0
y_51_10_11 0
y_52_2_10 0
x_1_0_2 1
x_2_0_2 1
x_3_0_2 1
x_4_0_2 1
x_3_0_4 1
x_4_0_4 1
x_3_2_4 1
x_4_2_4 1
x_5_0_2 1
x_5_0_4 1
x_4_0_5 1
x_5_0_5 1
x_5_2_4 1
x_4_2_5 0
x_5_2_5 1
x_4_4_5 0
x_5_4_5 1
x_6_0_2 1
x_6_0_4 1
x_6_0_5 1
x_6_2_4 1
x_6_2_5 1
x_6_4_5 1
x_7_0_2 1
x_7_0_4 1
x_7_0_5 1
x_7_2_4 1
x_7_2_5 1
x_7_4_5 1
x_8_0_2 1
x_8_0_4 1
x_8_0_5 1
x_8_2_4 1
x_8_2_5 1
x_8_4_5 1
x_9_0_2 1
x_9_0_4 1
x_9_0_5 1
x_9_2_4 1
x_9_2_5 1
x_9_4_5 1
x_10_0_2 1
x_10_0_4 1
x_10_0_5 1
x_10_2_4 1
x_10_2_5 1
x_10_4_5 0
x_11_0_2 1
x_11_0_4 1
x_11_0_5 1
x_11_2_4 1
x_11_2_5 1
x_11_4_5 0
x_12_0_2 1
x_12_0_4 1
x_12_0_5 1
x_12_2_4 1
x_12_2_5 1
x_12_4_5 0
x_13_0_2 0
x_13_0_4 1
x_13_0_5 1
x_13_2_4 1
x_13_2_5 1
x_13_4_5 0
x_14_0_2 0
x_14_0_4 1
x_14_0_5 1
x_14_2_4 1
x_14_2_5 1
x_14_4_5 0
x_15_0_2 1
x_15_0_4 1
x_15_0_5 1
x_15_2_4 1
x_15_2_5 1
x_15_4_5 0
x_16_0_2 1
x_16_0_4 1
x_16_0_5 1
x_15_0_6 1
x_16_0_6 1
x_16_2_4 1
x_16_2_5 1
x_15_2_6 1
x_16_2_6 1
x_16_4_5 0
x_15_4_6 0
x_16_4_6 0
x_15_5_6 0
x_16_5_6 0
x_17_0_2 1
x_17_0_4 1
x_17_0_5 1
x_17_2_4 1
x_17_2_5 1
x_17_4_5 0
x_18_0_2 1
x_18_0_4 1
x_18_0_5 1
x_18_2_4 1
x_18_2_5 1
x_18_4_5 0
x_19_0_2 1
x_19_0_4 1
x_19_0_5 1
x_19_2_4 1
x_19_2_5 1
x_19_4_5 0
x_20_0_2 1
x_20_0_4 1
x_20_2_4 1
x_21_0_2 1
x_21_0_4 1
x_21_2_4 1
x_22_0_2 1
x_22_0_4 1
x_22_2_4 1
x_23_0_2 1
x_23_0_4 1
x_23_2_4 1
x_24_0_2 1
x_24_0_4 1
x_24_2_4 1
x_25_0_2 1
x_25_0_4 1
x_25_2_4 1
x_26_0_2 1
x_26_0_4 1
x_25_0_8 1
x_26_0_8 1
x_26_2_4 1
x_25_2_8 1
x_26_2_8 1
x_25_4_8 0
x_26_4_8 0
x_27_0_2 1
x_27_0_4 1
x_27_0_8 1
x_27_2_4 1
x_27_2_8 1
x_27_4_8 0
x_28_0_2 1
x_28_0_4 1
x_28_0_8 1
x_27_0_9 1
x_28_0_9 1
x_28_2_4 0
x_28_2_8 1
x_27_2_9 1
x_28_2_9 1
x_28_4_8 1
x_27_4_9 0
x_28_4_9 1
x_27_8_9 0
x_28_8_9 0
x_29_0_2 1
x_29_0_4 1
x_29_0_8 1
x_29_0_9 1
x_29_2_4 0
x_29_2_8 1
x_29_2_9 1
x_29_4_8 1
x_29_4_9 1
x_29_8_9 1
x_30_0_2 1
x_30_0_4 1
x_30_0_8 1
x_30_0_9 1
x_30_2_4 0
x_30_2_8 1
x_30_2_9 1
x_30_4_8 1
x_30_4_9 1
x_30_8_9 1
x_31_0_2 1
x_31_0_4 1
x_31_0_8 1
x_31_0_9 1
x_31_2_4 0
x_31_2_8 1
x_31_2_9 1
x_31_4_8 1
x_31_4_9 1
x_31_8_9 1
x_32_0_2 1
x_32_0_4 1
x_32_0_8 1
x_32_0_9 1
x_32_2_4 0
x_32_2_8 1
x_32_2_9 1
x_32_4_8 1
x_32_4_9 1
x_32_8_9 1
x_33_0_2 1
x_33_0_4 1
x_33_0_8 1
x_33_0_9 1
x_33_2_4 0
x_33_2_8 1
x_33_2_9 1
x_33_4_8 1
x_33_4_9 1
x_33_8_9 1
x_34_0_2 1
x_34_0_4 1
x_34_0_8 1
x_34_0_9 1
x_34_2_4 0
x_34_2_8 1
x_34_2_9 1
x_34_4_8 1
x_34_4_9 1
x_34_8_9 1
x_35_0_2 1
x_35_0_4 1
x_35_0_8 1
x_35_0_9 1
x_35_2_4 0
x_35_2_8 1
x_35_2_9 1
x_35_4_8 1
x_35_4_9 1
x_35_8_9 1
x_36_0_2 1
x_36_0_4 1
x_36_0_8 1
x_36_0_9 1
x_36_2_4 0
x_36_2_8 1
x_36_2_9 1
x_36_4_8 1
x_36_4_9 1
x_36_8_9 1
x_37_0_2 1
x_37_0_4 1
x_37_0_8 1
x_37_0_9 1
x_37_2_4 0
x_37_2_8 1
x_37_2_9 1
x_37_4_8 1
x_37_4_9 1
x_37_8_9 1
x_38_0_2 1
x_38_0_4 1
x_38_0_8 1
x_38_0_9 1
x_37_0_10 1
x_38_0_10 1
x_38_2_4 0
x_38_2_8 1
x_38_2_9 1
x_37_2_10 1
x_38_2_10 1
x_38_4_8 1
x_38_4_9 1
x_37_4_10 1
x_38_4_10 1
x_38_8_9 1
x_37_8_10 0
x_38_8_10 0
x_37_9_10 0
x_38_9_10 0
x_39_0_2 0
x_39_0_4 0
x_39_0_8 1
x_39_0_9 1
x_39_0_10 1
x_39_2_4 0
x_39_2_8 1
x_39_2_9 1
x_39_2_10 1
x_39_4_8 1
x_39_4_9 1
x_39_4_10 1
x_39_8_9 0
x_39_8_10 0
x_39_9_10 1
x_40_2_4 0
x_40_2_8 1
x_40_2_9 1
x_40_2_10 1
x_40_4_8 1
x_40_4_9 1
x_40_4_10 1
x_40_8_9 0
x_40_8_10 1
x_40_9_10 1
x_41_2_4 0
x_41_2_9 1
x_41_2_10 1
x_41_4_9 1
x_41_4_10 1
x_41_9_10 1
x_42_2_4 0
x_42_2_10 1
x_42_4_10 1
x_43_2_4 0
x_43_2_10 1
x_42_2_11 1
x_43_2_11 1
x_43_4_10 1
x_42_4_11 1
x_43_4_11 1
x_42_10_11 1
x_43_10_11 1
x_44_2_4 0
x_44_2_10 1
x_44_2_11 1
x_44_4_10 1
x_44_4_11 1
x_44_10_11 1
x_45_2_4 0
x_45_2_10 1
x_45_2_11 1
x_45_4_10 1
x_45_4_11 1
x_45_10_11 1
x_46_2_4 0
x_46_2_10 1
x_46_2_11 1
x_46_4_10 1
x_46_4_11 1
x_46_10_11 1
x_47_2_4 0
x_47_2_10 1
x_47_2_11 1
x_47_4_10 1
x_47_4_11 1
x_47_10_11 1
x_48_2_10 1
x_48_2_11 1
x_48_10_11 1
x_49_2_10 1
x_49_2_11 1
x_48_2_12 1
x_49_2_12 1
x_49_10_11 1
x_48_10_12 0
x_49_10_12 0
x_48_11_12 0
x_49_11_12 0
x_50_2_10 1
x_50_2_11 1
x_50_2_12 1
x_50_10_11 1
x_50_10_12 0
x_50_11_12 0
x_51_2_10 1
x_51_2_11 1
x_51_10_11 1
x_52_2_10 1
x_52_2_11 1
x_52_10_11 1
x_53_2_10 1
x_0_0_1 1
x_0_1_0 0
x_1_2_0 0
x_2_2_0 0
x_2_0_3 0
x_2_3_0 1
x_2_2_3 0
x_2_3_2 1
x_3_2_0 0
x_3_4_0 0
x_3_4_2 0
x_4_2_0 0
x_4_4_0 0
x_4_5_0 0
x_4_4_2 0
x_4_5_2 1
x_4_5_4 1
x_5_2_0 0
x_5_4_0 0
x_5_5_0 0
x_5_4_2 0
x_5_5_2 0
x_5_5_4 0
x_6_2_0 0
x_6_4_0 0
x_6_5_0 0
x_6_4_2 0
x_6_5_2 0
x_6_5_4 0
x_7_2_0 0
x_7_4_0 0
x_7_5_0 0
x_7_4_2 0
x_7_5_2 0
x_7_5_4 0
x_8_2_0 0
x_8_4_0 0
x_8_5_0 0
x_8_4_2 0
x_8_5_2 0
x_8_5_4 0
x_9_2_0 0
x_9_4_0 0
x_9_5_0 0
x_9_4_2 0
x_9_5_2 0
x_9_5_4 0
x_10_2_0 0
x_10_4_0 0
x_10_5_0 0
x_10_4_2 0
x_10_5_2 0
x_10_5_4 1
x_11_2_0 0
x_11_4_0 0
x_11_5_0 0
x_11_4_2 0
x_11_5_2 0
x_11_5_4 1
x_12_2_0 0
x_12_4_0 0
x_12_5_0 0
x_12_4_2 0
x_12_5_2 0
x_12_5_4 1
x_13_2_0 1
x_13_4_0 0
x_13_5_0 0
x_13_4_2 0
x_13_5_2 0
x_13_5_4 1
x_14_2_0 1
x_14_4_0 0
x_14_5_0 0
x_14_4_2 0
x_14_5_2 0
x_14_5_4 1
x_15_2_0 0
x_15_4_0 0
x_15_5_0 0
x_15_6_0 0
x_15_0_7 1
x_15_7_0 0
x_15_4_2 0
x_15_5_2 0
x_15_6_2 0
x_15_2_7 1
x_15_7_2 0
x_15_5_4 1
x_15_6_4 1
x_15_4_7 0
x_15_7_4 1
x_15_6_5 1
x_15_5_7 0
x_15_7_5 1
x_15_6_7 0
x_15_7_6 1
x_16_2_0 0
x_16_4_0 0
x_16_5_0 0
x_16_6_0 0
x_16_4_2 0
x_16_5_2 0
x_16_6_2 0
x_16_5_4 1
x_16_6_4 1
x_16_6_5 1
x_17_2_0 0
x_17_4_0 0
x_17_5_0 0
x_17_4_2 0
x_17_5_2 0
x_17_5_4 1
x_18_2_0 0
x_18_4_0 0
x_18_5_0 0
x_18_4_2 0
x_18_5_2 0
x_18_5_4 1
x_19_2_0 0
x_19_4_0 0
x_19_5_0 0
x_19_4_2 0
x_19_5_2 0
x_19_5_4 1
x_20_2_0 0
x_20_4_0 0
x_20_4_2 0
x_21_2_0 0
x_21_4_0 0
x_21_4_2 0
x_22_2_0 0
x_22_4_0 0
x_22_4_2 0
x_23_2_0 0
x_23_4_0 0
x_23_4_2 0
x_24_2_0 0
x_24_4_0 0
x_24_4_2 0
x_25_2_0 0
x_25_4_0 0
x_25_8_0 0
x_25_4_2 0
x_25_8_2 0
x_25_8_4 1
x_26_2_0 0
x_26_4_0 0
x_26_8_0 0
x_26_4_2 0
x_26_8_2 0
x_26_8_4 1
x_27_2_0 0
x_27_4_0 0
x_27_8_0 0
x_27_9_0 0
x_27_4_2 0
x_27_8_2 0
x_27_9_2 0
x_27_8_4 1
x_27_9_4 1
x_27_9_8 1
x_28_2_0 0
x_28_4_0 0
x_28_8_0 0
x_28_9_0 0
x_28_4_2 1
x_28_8_2 0
x_28_9_2 0
x_28_8_4 0
x_28_9_4 0
x_28_9_8 1
x_29_2_0 0
x_29_4_0 0
x_29_8_0 0
x_29_9_0 0
x_29_4_2 1
x_29_8_2 0
x_29_9_2 0
x_29_8_4 0
x_29_9_4 0
x_29_9_8 0
x_30_2_0 0
x_30_4_0 0
x_30_8_0 0
x_30_9_0 0
x_30_4_2 1
x_30_8_2 0
x_30_9_2 0
x_30_8_4 0
x_30_9_4 0
x_30_9_8 0
x_31_2_0 0
x_31_4_0 0
x_31_8_0 0
x_31_9_0 0
x_31_4_2 1
x_31_8_2 0
x_31_9_2 0
x_31_8_4 0
x_31_9_4 0
x_31_9_8 0
x_32_2_0 0
x_32_4_0 0
x_32_8_0 0
x_32_9_0 0
x_32_4_2 1
x_32_8_2 0
x_32_9_2 0
x_32_8_4 0
x_32_9_4 0
x_32_9_8 0
x_33_2_0 0
x_33_4_0 0
x_33_8_0 0
x_33_9_0 0
x_33_4_2 1
x_33_8_2 0
x_33_9_2 0
x_33_8_4 0
x_33_9_4 0
x_33_9_8 0
x_34_2_0 0
x_34_4_0 0
x_34_8_0 0
x_34_9_0 0
x_34_4_2 1
x_34_8_2 0
x_34_9_2 0
x_34_8_4 0
x_34_9_4 0
x_34_9_8 0
x_35_2_0 0
x_35_4_0 0
x_35_8_0 0
x_35_9_0 0
x_35_4_2 1
x_35_8_2 0
x_35_9_2 0
x_35_8_4 0
x_35_9_4 0
x_35_9_8 0
x_36_2_0 0
x_36_4_0 0
x_36_8_0 0
x_36_9_0 0
x_36_4_2 1
x_36_8_2 0
x_36_9_2 0
x_36_8_4 0
x_36_9_4 0
x_36_9_8 0
x_37_2_0 0
x_37_4_0 0
x_37_8_0 0
x_37_9_0 0
x_37_10_0 0
x_37_4_2 1
x_37_8_2 0
x_37_9_2 0
x_37_10_2 0
x_37_8_4 0
x_37_9_4 0
x_37_10_4 0
x_37_9_8 0
x_37_10_8 1
x_37_10_9 1
x_38_2_0 0
x_38_4_0 0
x_38_8_0 0
x_38_9_0 0
x_38_10_0 0
x_38_4_2 1
x_38_8_2 0
x_38_9_2 0
x_38_10_2 0
x_38_8_4 0
x_38_9_4 0
x_38_10_4 0
x_38_9_8 0
x_38_10_8 1
x_38_10_9 1
x_39_2_0 1
x_39_4_0 1
x_39_8_0 0
x_39_9_0 0
x_39_10_0 0
x_39_4_2 1
x_39_8_2 0
x_39_9_2 0
x_39_10_2 0
x_39_8_4 0
x_39_9_4 0
x_39_10_4 0
x_39_9_8 1
x_39_10_8 1
x_39_10_9 0
x_40_4_2 1
x_40_8_2 0
x_40_9_2 0
x_40_10_2 0
x_40_8_4 0
x_40_9_4 0
x_40_10_4 0
x_40_9_8 1
x_40_10_8 0
x_40_10_9 0
x_41_4_2 1
x_41_9_2 0
x_41_10_2 0
x_41_9_4 0
x_41_10_4 0
x_41_10_9 0
x_42_4_2 1
x_42_10_2 0
x_42_11_2 0
x_42_10_4 0
x_42_11_4 0
x_42_11_10 0
x_43_4_2 1
x_43_10_2 0
x_43_11_2 0
x_43_10_4 0
x_43_11_4 0
x_43_11_10 0
x_44_4_2 1
x_44_10_2 0
x_44_11_2 0
x_44_10_4 0
x_44_11_4 0
x_44_11_10 0
x_45_4_2 1
x_45_10_2 0
x_45_11_2 0
x_45_10_4 0
x_45_11_4 0
x_45_11_10 0
x_46_4_2 1
x_46_10_2 0
x_46_11_2 0
x_46_10_4 0
x_46_11_4 0
x_46_11_10 0
x_47_4_2 1
x_47_10_2 0
x_47_11_2 0
x_47_10_4 0
x_47_11_4 0
x_47_11_10 0
x_48_10_2 0
x_48_11_2 0
x_48_12_2 0
x_48_11_10 0
x_48_12_10 1
x_48_12_11 1
x_49_10_2 0
x_49_11_2 0
x_49_12_2 0
x_49_11_10 0
x_49_12_10 1
x_49_12_11 1
x_50_10_2 0
x_50_11_2 0
x_50_12_2 0
x_50_11_10 0
x_50_12_10 1
x_50_12_11 1
x_51_10_2 0
x_51_11_2 0
x_51_11_10 0
x_52_10_2 0
x_52_11_2 0
x_52_11_10 0
x_53_10_2 0
